(set-logic QF_FPBV)
(set-info :source |Random FP created by PyMPF|)
(set-info :category random)
(set-info :status unsat)
;; fp.from.sbv(BitVec 64)
(declare-const x (_ BitVec 64))
(assert (bvsle x #b0001101001100110101111011011000000111110001001000010000011000001))
;; x should be 1902416457265062081
(declare-const r Float64)
(assert (= r ((_ to_fp 11 53) RTZ x)))
(assert (not (fp.leq r ((_ to_fp 11 53) #x43BA66BDB03E2420))))
(check-sat)
(exit)
